; benchmark generated from python API
(set-info :status unknown)
(declare-fun cell_1_6 () Int)
(declare-fun cell_1_8 () Int)
(declare-fun cell_2_5 () Int)
(declare-fun cell_2_7 () Int)
(declare-fun cell_3_2 () Int)
(declare-fun cell_3_3 () Int)
(declare-fun cell_4_4 () Int)
(declare-fun cell_5_8 () Int)
(declare-fun cell_6_1 () Int)
(declare-fun cell_7_9 () Int)
(declare-fun cell_8_2 () Int)
(declare-fun cell_9_5 () Int)
(declare-fun cell_1_1 () Int)
(declare-fun cell_2_1 () Int)
(declare-fun cell_3_1 () Int)
(declare-fun cell_4_1 () Int)
(declare-fun cell_5_1 () Int)
(declare-fun cell_7_1 () Int)
(declare-fun cell_8_1 () Int)
(declare-fun cell_9_1 () Int)
(declare-fun cell_1_2 () Int)
(declare-fun cell_2_2 () Int)
(declare-fun cell_4_2 () Int)
(declare-fun cell_5_2 () Int)
(declare-fun cell_6_2 () Int)
(declare-fun cell_7_2 () Int)
(declare-fun cell_9_2 () Int)
(declare-fun cell_1_3 () Int)
(declare-fun cell_2_3 () Int)
(declare-fun cell_4_3 () Int)
(declare-fun cell_5_3 () Int)
(declare-fun cell_6_3 () Int)
(declare-fun cell_7_3 () Int)
(declare-fun cell_8_3 () Int)
(declare-fun cell_9_3 () Int)
(declare-fun cell_1_4 () Int)
(declare-fun cell_2_4 () Int)
(declare-fun cell_3_4 () Int)
(declare-fun cell_5_4 () Int)
(declare-fun cell_6_4 () Int)
(declare-fun cell_7_4 () Int)
(declare-fun cell_8_4 () Int)
(declare-fun cell_9_4 () Int)
(declare-fun cell_1_5 () Int)
(declare-fun cell_3_5 () Int)
(declare-fun cell_4_5 () Int)
(declare-fun cell_5_5 () Int)
(declare-fun cell_6_5 () Int)
(declare-fun cell_7_5 () Int)
(declare-fun cell_8_5 () Int)
(declare-fun cell_2_6 () Int)
(declare-fun cell_3_6 () Int)
(declare-fun cell_4_6 () Int)
(declare-fun cell_5_6 () Int)
(declare-fun cell_6_6 () Int)
(declare-fun cell_7_6 () Int)
(declare-fun cell_8_6 () Int)
(declare-fun cell_9_6 () Int)
(declare-fun cell_1_7 () Int)
(declare-fun cell_3_7 () Int)
(declare-fun cell_4_7 () Int)
(declare-fun cell_5_7 () Int)
(declare-fun cell_6_7 () Int)
(declare-fun cell_7_7 () Int)
(declare-fun cell_8_7 () Int)
(declare-fun cell_9_7 () Int)
(declare-fun cell_2_8 () Int)
(declare-fun cell_3_8 () Int)
(declare-fun cell_4_8 () Int)
(declare-fun cell_6_8 () Int)
(declare-fun cell_7_8 () Int)
(declare-fun cell_8_8 () Int)
(declare-fun cell_9_8 () Int)
(declare-fun cell_1_9 () Int)
(declare-fun cell_2_9 () Int)
(declare-fun cell_3_9 () Int)
(declare-fun cell_4_9 () Int)
(declare-fun cell_5_9 () Int)
(declare-fun cell_6_9 () Int)
(declare-fun cell_8_9 () Int)
(declare-fun cell_9_9 () Int)
(assert
 (= cell_1_6 1))
(assert
 (= cell_1_8 2))
(assert
 (= cell_2_5 2))
(assert
 (= cell_2_7 1))
(assert
 (= cell_3_2 2))
(assert
 (= cell_3_3 1))
(assert
 (= cell_4_4 1))
(assert
 (= cell_5_8 1))
(assert
 (= cell_6_1 1))
(assert
 (= cell_7_9 1))
(assert
 (= cell_8_2 1))
(assert
 (= cell_9_5 1))
(assert
 (let (($x390 (= cell_1_1 9)))
 (let (($x3045 (= cell_1_1 8)))
 (let (($x5791 (= cell_1_1 7)))
 (let (($x1690 (= cell_1_1 6)))
 (let (($x863 (= cell_1_1 5)))
 (let (($x436 (= cell_1_1 4)))
 (let (($x701 (= cell_1_1 3)))
 (let (($x3898 (= cell_1_1 2)))
 (let (($x3606 (= cell_1_1 1)))
 (or $x3606 $x3898 $x701 $x436 $x863 $x1690 $x5791 $x3045 $x390)))))))))))
(assert
 (let (($x2285 (= cell_2_1 9)))
 (let (($x4239 (= cell_2_1 8)))
 (let (($x4736 (= cell_2_1 7)))
 (let (($x8389 (= cell_2_1 6)))
 (let (($x2047 (= cell_2_1 5)))
 (let (($x5092 (= cell_2_1 4)))
 (let (($x1910 (= cell_2_1 3)))
 (let (($x2511 (= cell_2_1 2)))
 (let (($x4406 (= cell_2_1 1)))
 (or $x4406 $x2511 $x1910 $x5092 $x2047 $x8389 $x4736 $x4239 $x2285)))))))))))
(assert
 (let (($x2074 (= cell_3_1 9)))
 (let (($x1222 (= cell_3_1 8)))
 (let (($x708 (= cell_3_1 7)))
 (let (($x4102 (= cell_3_1 6)))
 (let (($x1305 (= cell_3_1 5)))
 (let (($x1100 (= cell_3_1 4)))
 (let (($x4550 (= cell_3_1 3)))
 (let (($x4504 (= cell_3_1 2)))
 (let (($x2700 (= cell_3_1 1)))
 (or $x2700 $x4504 $x4550 $x1100 $x1305 $x4102 $x708 $x1222 $x2074)))))))))))
(assert
 (let (($x37 (= cell_4_1 9)))
 (let (($x6312 (= cell_4_1 8)))
 (let (($x6404 (= cell_4_1 7)))
 (let (($x1190 (= cell_4_1 6)))
 (let (($x1170 (= cell_4_1 5)))
 (let (($x5989 (= cell_4_1 4)))
 (let (($x5467 (= cell_4_1 3)))
 (let (($x2909 (= cell_4_1 2)))
 (let (($x4829 (= cell_4_1 1)))
 (or $x4829 $x2909 $x5467 $x5989 $x1170 $x1190 $x6404 $x6312 $x37)))))))))))
(assert
 (let (($x1428 (= cell_5_1 9)))
 (let (($x4964 (= cell_5_1 8)))
 (let (($x1701 (= cell_5_1 7)))
 (let (($x524 (= cell_5_1 6)))
 (let (($x5305 (= cell_5_1 5)))
 (let (($x2489 (= cell_5_1 4)))
 (let (($x1075 (= cell_5_1 3)))
 (let (($x6328 (= cell_5_1 2)))
 (let (($x3969 (= cell_5_1 1)))
 (or $x3969 $x6328 $x1075 $x2489 $x5305 $x524 $x1701 $x4964 $x1428)))))))))))
(assert
 (let (($x5753 (= cell_6_1 1)))
 (or $x5753 (= cell_6_1 2) (= cell_6_1 3) (= cell_6_1 4) (= cell_6_1 5) (= cell_6_1 6) (= cell_6_1 7) (= cell_6_1 8) (= cell_6_1 9))))
(assert
 (let (($x2413 (= cell_7_1 9)))
 (let (($x1270 (= cell_7_1 8)))
 (let (($x2288 (= cell_7_1 7)))
 (let (($x6161 (= cell_7_1 6)))
 (let (($x434 (= cell_7_1 5)))
 (let (($x1720 (= cell_7_1 4)))
 (let (($x2997 (= cell_7_1 3)))
 (let (($x1420 (= cell_7_1 2)))
 (let (($x4399 (= cell_7_1 1)))
 (or $x4399 $x1420 $x2997 $x1720 $x434 $x6161 $x2288 $x1270 $x2413)))))))))))
(assert
 (let (($x2668 (= cell_8_1 9)))
 (let (($x2861 (= cell_8_1 8)))
 (let (($x3990 (= cell_8_1 7)))
 (let (($x5910 (= cell_8_1 6)))
 (let (($x1597 (= cell_8_1 5)))
 (let (($x638 (= cell_8_1 4)))
 (let (($x3082 (= cell_8_1 3)))
 (let (($x5497 (= cell_8_1 2)))
 (let (($x5527 (= cell_8_1 1)))
 (or $x5527 $x5497 $x3082 $x638 $x1597 $x5910 $x3990 $x2861 $x2668)))))))))))
(assert
 (let (($x3698 (= cell_9_1 9)))
 (let (($x5462 (= cell_9_1 8)))
 (let (($x342 (= cell_9_1 7)))
 (let (($x5025 (= cell_9_1 6)))
 (let (($x2405 (= cell_9_1 5)))
 (let (($x5071 (= cell_9_1 4)))
 (let (($x547 (= cell_9_1 3)))
 (let (($x2546 (= cell_9_1 2)))
 (let (($x5247 (= cell_9_1 1)))
 (or $x5247 $x2546 $x547 $x5071 $x2405 $x5025 $x342 $x5462 $x3698)))))))))))
(assert
 (let (($x3410 (= cell_1_2 9)))
 (let (($x591 (= cell_1_2 8)))
 (let (($x6028 (= cell_1_2 7)))
 (let (($x2211 (= cell_1_2 6)))
 (let (($x3404 (= cell_1_2 5)))
 (let (($x5302 (= cell_1_2 4)))
 (let (($x593 (= cell_1_2 3)))
 (let (($x2563 (= cell_1_2 2)))
 (let (($x5867 (= cell_1_2 1)))
 (or $x5867 $x2563 $x593 $x5302 $x3404 $x2211 $x6028 $x591 $x3410)))))))))))
(assert
 (let (($x2181 (= cell_2_2 9)))
 (let (($x270 (= cell_2_2 8)))
 (let (($x5360 (= cell_2_2 7)))
 (let (($x1963 (= cell_2_2 6)))
 (let (($x284 (= cell_2_2 5)))
 (let (($x3569 (= cell_2_2 4)))
 (let (($x3488 (= cell_2_2 3)))
 (let (($x494 (= cell_2_2 2)))
 (let (($x2935 (= cell_2_2 1)))
 (or $x2935 $x494 $x3488 $x3569 $x284 $x1963 $x5360 $x270 $x2181)))))))))))
(assert
 (let (($x1139 (= cell_3_2 2)))
 (or (= cell_3_2 1) $x1139 (= cell_3_2 3) (= cell_3_2 4) (= cell_3_2 5) (= cell_3_2 6) (= cell_3_2 7) (= cell_3_2 8) (= cell_3_2 9))))
(assert
 (let (($x1032 (= cell_4_2 9)))
 (let (($x4490 (= cell_4_2 8)))
 (let (($x4125 (= cell_4_2 7)))
 (let (($x3249 (= cell_4_2 6)))
 (let (($x4276 (= cell_4_2 5)))
 (let (($x330 (= cell_4_2 4)))
 (let (($x3899 (= cell_4_2 3)))
 (let (($x3838 (= cell_4_2 2)))
 (let (($x2268 (= cell_4_2 1)))
 (or $x2268 $x3838 $x3899 $x330 $x4276 $x3249 $x4125 $x4490 $x1032)))))))))))
(assert
 (let (($x5728 (= cell_5_2 9)))
 (let (($x4898 (= cell_5_2 8)))
 (let (($x4013 (= cell_5_2 7)))
 (let (($x2343 (= cell_5_2 6)))
 (let (($x4572 (= cell_5_2 5)))
 (let (($x2727 (= cell_5_2 4)))
 (let (($x3854 (= cell_5_2 3)))
 (let (($x945 (= cell_5_2 2)))
 (let (($x1169 (= cell_5_2 1)))
 (or $x1169 $x945 $x3854 $x2727 $x4572 $x2343 $x4013 $x4898 $x5728)))))))))))
(assert
 (let (($x3843 (= cell_6_2 9)))
 (let (($x4742 (= cell_6_2 8)))
 (let (($x4551 (= cell_6_2 7)))
 (let (($x3809 (= cell_6_2 6)))
 (let (($x3673 (= cell_6_2 5)))
 (let (($x6340 (= cell_6_2 4)))
 (let (($x3056 (= cell_6_2 3)))
 (let (($x3687 (= cell_6_2 2)))
 (let (($x4600 (= cell_6_2 1)))
 (or $x4600 $x3687 $x3056 $x6340 $x3673 $x3809 $x4551 $x4742 $x3843)))))))))))
(assert
 (let (($x465 (= cell_7_2 9)))
 (let (($x3940 (= cell_7_2 8)))
 (let (($x661 (= cell_7_2 7)))
 (let (($x1681 (= cell_7_2 6)))
 (let (($x402 (= cell_7_2 5)))
 (let (($x2949 (= cell_7_2 4)))
 (let (($x4560 (= cell_7_2 3)))
 (let (($x2207 (= cell_7_2 2)))
 (let (($x1929 (= cell_7_2 1)))
 (or $x1929 $x2207 $x4560 $x2949 $x402 $x1681 $x661 $x3940 $x465)))))))))))
(assert
 (let (($x258 (= cell_8_2 1)))
 (or $x258 (= cell_8_2 2) (= cell_8_2 3) (= cell_8_2 4) (= cell_8_2 5) (= cell_8_2 6) (= cell_8_2 7) (= cell_8_2 8) (= cell_8_2 9))))
(assert
 (let (($x3768 (= cell_9_2 9)))
 (let (($x4530 (= cell_9_2 8)))
 (let (($x2504 (= cell_9_2 7)))
 (let (($x2858 (= cell_9_2 6)))
 (let (($x8720 (= cell_9_2 5)))
 (let (($x5808 (= cell_9_2 4)))
 (let (($x4401 (= cell_9_2 3)))
 (let (($x2534 (= cell_9_2 2)))
 (let (($x3837 (= cell_9_2 1)))
 (or $x3837 $x2534 $x4401 $x5808 $x8720 $x2858 $x2504 $x4530 $x3768)))))))))))
(assert
 (let (($x2743 (= cell_1_3 9)))
 (let (($x833 (= cell_1_3 8)))
 (let (($x5044 (= cell_1_3 7)))
 (let (($x2672 (= cell_1_3 6)))
 (let (($x5057 (= cell_1_3 5)))
 (let (($x4832 (= cell_1_3 4)))
 (let (($x1227 (= cell_1_3 3)))
 (let (($x540 (= cell_1_3 2)))
 (let (($x4555 (= cell_1_3 1)))
 (or $x4555 $x540 $x1227 $x4832 $x5057 $x2672 $x5044 $x833 $x2743)))))))))))
(assert
 (let (($x6165 (= cell_2_3 9)))
 (let (($x4622 (= cell_2_3 8)))
 (let (($x2223 (= cell_2_3 7)))
 (let (($x3479 (= cell_2_3 6)))
 (let (($x4018 (= cell_2_3 5)))
 (let (($x2819 (= cell_2_3 4)))
 (let (($x5067 (= cell_2_3 3)))
 (let (($x5384 (= cell_2_3 2)))
 (let (($x5154 (= cell_2_3 1)))
 (or $x5154 $x5384 $x5067 $x2819 $x4018 $x3479 $x2223 $x4622 $x6165)))))))))))
(assert
 (let (($x881 (= cell_3_3 1)))
 (or $x881 (= cell_3_3 2) (= cell_3_3 3) (= cell_3_3 4) (= cell_3_3 5) (= cell_3_3 6) (= cell_3_3 7) (= cell_3_3 8) (= cell_3_3 9))))
(assert
 (let (($x1257 (= cell_4_3 9)))
 (let (($x4526 (= cell_4_3 8)))
 (let (($x3355 (= cell_4_3 7)))
 (let (($x2046 (= cell_4_3 6)))
 (let (($x2496 (= cell_4_3 5)))
 (let (($x907 (= cell_4_3 4)))
 (let (($x2443 (= cell_4_3 3)))
 (let (($x2646 (= cell_4_3 2)))
 (let (($x5540 (= cell_4_3 1)))
 (or $x5540 $x2646 $x2443 $x907 $x2496 $x2046 $x3355 $x4526 $x1257)))))))))))
(assert
 (let (($x1442 (= cell_5_3 9)))
 (let (($x1424 (= cell_5_3 8)))
 (let (($x5319 (= cell_5_3 7)))
 (let (($x4277 (= cell_5_3 6)))
 (let (($x1061 (= cell_5_3 5)))
 (let (($x1973 (= cell_5_3 4)))
 (let (($x2170 (= cell_5_3 3)))
 (let (($x4334 (= cell_5_3 2)))
 (let (($x4860 (= cell_5_3 1)))
 (or $x4860 $x4334 $x2170 $x1973 $x1061 $x4277 $x5319 $x1424 $x1442)))))))))))
(assert
 (let (($x4501 (= cell_6_3 2)))
 (let (($x1771 (= cell_6_3 1)))
 (or $x1771 $x4501 (= cell_6_3 3) (= cell_6_3 4) (= cell_6_3 5) (= cell_6_3 6) (= cell_6_3 7) (= cell_6_3 8) (= cell_6_3 9)))))
(assert
 (let (($x3954 (= cell_7_3 9)))
 (let (($x4214 (= cell_7_3 8)))
 (let (($x511 (= cell_7_3 7)))
 (let (($x4776 (= cell_7_3 6)))
 (let (($x3715 (= cell_7_3 5)))
 (let (($x6196 (= cell_7_3 4)))
 (let (($x6035 (= cell_7_3 3)))
 (let (($x3580 (= cell_7_3 2)))
 (let (($x4533 (= cell_7_3 1)))
 (or $x4533 $x3580 $x6035 $x6196 $x3715 $x4776 $x511 $x4214 $x3954)))))))))))
(assert
 (let (($x5674 (= cell_8_3 1)))
 (or $x5674 (= cell_8_3 2) (= cell_8_3 3) (= cell_8_3 4) (= cell_8_3 5) (= cell_8_3 6) (= cell_8_3 7) (= cell_8_3 8) (= cell_8_3 9))))
(assert
 (let (($x5046 (= cell_9_3 9)))
 (let (($x5447 (= cell_9_3 8)))
 (let (($x1615 (= cell_9_3 7)))
 (let (($x4891 (= cell_9_3 6)))
 (let (($x680 (= cell_9_3 5)))
 (let (($x1155 (= cell_9_3 4)))
 (let (($x6895 (= cell_9_3 3)))
 (let (($x485 (= cell_9_3 2)))
 (let (($x4030 (= cell_9_3 1)))
 (or $x4030 $x485 $x6895 $x1155 $x680 $x4891 $x1615 $x5447 $x5046)))))))))))
(assert
 (let (($x4515 (= cell_1_4 9)))
 (let (($x5522 (= cell_1_4 8)))
 (let (($x5629 (= cell_1_4 7)))
 (let (($x1375 (= cell_1_4 6)))
 (let (($x668 (= cell_1_4 5)))
 (let (($x2086 (= cell_1_4 4)))
 (let (($x5303 (= cell_1_4 3)))
 (let (($x5327 (= cell_1_4 2)))
 (let (($x1021 (= cell_1_4 1)))
 (or $x1021 $x5327 $x5303 $x2086 $x668 $x1375 $x5629 $x5522 $x4515)))))))))))
(assert
 (let (($x2853 (= cell_2_4 9)))
 (let (($x8936 (= cell_2_4 8)))
 (let (($x3819 (= cell_2_4 7)))
 (let (($x4561 (= cell_2_4 6)))
 (let (($x3900 (= cell_2_4 5)))
 (let (($x5406 (= cell_2_4 4)))
 (let (($x5614 (= cell_2_4 3)))
 (let (($x4076 (= cell_2_4 2)))
 (let (($x4350 (= cell_2_4 1)))
 (or $x4350 $x4076 $x5614 $x5406 $x3900 $x4561 $x3819 $x8936 $x2853)))))))))))
(assert
 (let (($x6396 (= cell_3_4 9)))
 (let (($x2121 (= cell_3_4 8)))
 (let (($x219 (= cell_3_4 7)))
 (let (($x4258 (= cell_3_4 6)))
 (let (($x1206 (= cell_3_4 5)))
 (let (($x1043 (= cell_3_4 4)))
 (let (($x5102 (= cell_3_4 3)))
 (let (($x6351 (= cell_3_4 2)))
 (let (($x6048 (= cell_3_4 1)))
 (or $x6048 $x6351 $x5102 $x1043 $x1206 $x4258 $x219 $x2121 $x6396)))))))))))
(assert
 (let (($x1936 (= cell_4_4 1)))
 (or $x1936 (= cell_4_4 2) (= cell_4_4 3) (= cell_4_4 4) (= cell_4_4 5) (= cell_4_4 6) (= cell_4_4 7) (= cell_4_4 8) (= cell_4_4 9))))
(assert
 (let (($x5380 (= cell_5_4 9)))
 (let (($x5838 (= cell_5_4 8)))
 (let (($x1970 (= cell_5_4 7)))
 (let (($x1888 (= cell_5_4 6)))
 (let (($x1321 (= cell_5_4 5)))
 (let (($x1126 (= cell_5_4 4)))
 (let (($x4672 (= cell_5_4 3)))
 (let (($x5691 (= cell_5_4 2)))
 (let (($x4019 (= cell_5_4 1)))
 (or $x4019 $x5691 $x4672 $x1126 $x1321 $x1888 $x1970 $x5838 $x5380)))))))))))
(assert
 (let (($x1869 (= cell_6_4 1)))
 (or $x1869 (= cell_6_4 2) (= cell_6_4 3) (= cell_6_4 4) (= cell_6_4 5) (= cell_6_4 6) (= cell_6_4 7) (= cell_6_4 8) (= cell_6_4 9))))
(assert
 (let (($x6094 (= cell_7_4 9)))
 (let (($x3057 (= cell_7_4 8)))
 (let (($x3922 (= cell_7_4 7)))
 (let (($x2374 (= cell_7_4 6)))
 (let (($x5873 (= cell_7_4 5)))
 (let (($x5368 (= cell_7_4 4)))
 (let (($x4115 (= cell_7_4 3)))
 (let (($x3086 (= cell_7_4 2)))
 (let (($x1193 (= cell_7_4 1)))
 (or $x1193 $x3086 $x4115 $x5368 $x5873 $x2374 $x3922 $x3057 $x6094)))))))))))
(assert
 (let (($x1117 (= cell_8_4 9)))
 (let (($x3571 (= cell_8_4 8)))
 (let (($x207 (= cell_8_4 7)))
 (let (($x2841 (= cell_8_4 6)))
 (let (($x5663 (= cell_8_4 5)))
 (let (($x6204 (= cell_8_4 4)))
 (let (($x5001 (= cell_8_4 3)))
 (let (($x536 (= cell_8_4 2)))
 (let (($x2120 (= cell_8_4 1)))
 (or $x2120 $x536 $x5001 $x6204 $x5663 $x2841 $x207 $x3571 $x1117)))))))))))
(assert
 (let (($x3346 (= cell_9_4 9)))
 (let (($x6364 (= cell_9_4 8)))
 (let (($x3680 (= cell_9_4 7)))
 (let (($x382 (= cell_9_4 6)))
 (let (($x3014 (= cell_9_4 5)))
 (let (($x5712 (= cell_9_4 4)))
 (let (($x5570 (= cell_9_4 3)))
 (let (($x5498 (= cell_9_4 2)))
 (let (($x1233 (= cell_9_4 1)))
 (or $x1233 $x5498 $x5570 $x5712 $x3014 $x382 $x3680 $x6364 $x3346)))))))))))
(assert
 (let (($x6377 (= cell_1_5 9)))
 (let (($x1737 (= cell_1_5 8)))
 (let (($x4842 (= cell_1_5 7)))
 (let (($x1079 (= cell_1_5 6)))
 (let (($x608 (= cell_1_5 5)))
 (let (($x9258 (= cell_1_5 4)))
 (let (($x5736 (= cell_1_5 3)))
 (let (($x9219 (= cell_1_5 2)))
 (let (($x3018 (= cell_1_5 1)))
 (or $x3018 $x9219 $x5736 $x9258 $x608 $x1079 $x4842 $x1737 $x6377)))))))))))
(assert
 (let (($x5408 (= cell_2_5 2)))
 (or (= cell_2_5 1) $x5408 (= cell_2_5 3) (= cell_2_5 4) (= cell_2_5 5) (= cell_2_5 6) (= cell_2_5 7) (= cell_2_5 8) (= cell_2_5 9))))
(assert
 (let (($x4466 (= cell_3_5 9)))
 (let (($x6444 (= cell_3_5 8)))
 (let (($x5881 (= cell_3_5 7)))
 (let (($x3928 (= cell_3_5 6)))
 (let (($x3669 (= cell_3_5 5)))
 (let (($x3374 (= cell_3_5 4)))
 (let (($x2262 (= cell_3_5 3)))
 (let (($x5448 (= cell_3_5 2)))
 (let (($x5414 (= cell_3_5 1)))
 (or $x5414 $x5448 $x2262 $x3374 $x3669 $x3928 $x5881 $x6444 $x4466)))))))))))
(assert
 (let (($x4749 (= cell_4_5 9)))
 (let (($x2491 (= cell_4_5 8)))
 (let (($x4889 (= cell_4_5 7)))
 (let (($x3501 (= cell_4_5 6)))
 (let (($x3806 (= cell_4_5 5)))
 (let (($x78 (= cell_4_5 4)))
 (let (($x3456 (= cell_4_5 3)))
 (let (($x5213 (= cell_4_5 2)))
 (let (($x3104 (= cell_4_5 1)))
 (or $x3104 $x5213 $x3456 $x78 $x3806 $x3501 $x4889 $x2491 $x4749)))))))))))
(assert
 (let (($x479 (= cell_5_5 9)))
 (let (($x3050 (= cell_5_5 8)))
 (let (($x1062 (= cell_5_5 7)))
 (let (($x2251 (= cell_5_5 6)))
 (let (($x7339 (= cell_5_5 5)))
 (let (($x372 (= cell_5_5 4)))
 (let (($x633 (= cell_5_5 3)))
 (let (($x9 (= cell_5_5 2)))
 (let (($x5581 (= cell_5_5 1)))
 (or $x5581 $x9 $x633 $x372 $x7339 $x2251 $x1062 $x3050 $x479)))))))))))
(assert
 (let (($x1719 (= cell_6_5 9)))
 (let (($x5601 (= cell_6_5 8)))
 (let (($x6156 (= cell_6_5 7)))
 (let (($x228 (= cell_6_5 6)))
 (let (($x4941 (= cell_6_5 5)))
 (let (($x3747 (= cell_6_5 4)))
 (let (($x5372 (= cell_6_5 3)))
 (let (($x5705 (= cell_6_5 2)))
 (let (($x5399 (= cell_6_5 1)))
 (or $x5399 $x5705 $x5372 $x3747 $x4941 $x228 $x6156 $x5601 $x1719)))))))))))
(assert
 (let (($x5188 (= cell_7_5 9)))
 (let (($x3442 (= cell_7_5 8)))
 (let (($x5657 (= cell_7_5 7)))
 (let (($x6547 (= cell_7_5 6)))
 (let (($x1563 (= cell_7_5 5)))
 (let (($x3016 (= cell_7_5 4)))
 (let (($x800 (= cell_7_5 3)))
 (let (($x1596 (= cell_7_5 2)))
 (let (($x1016 (= cell_7_5 1)))
 (or $x1016 $x1596 $x800 $x3016 $x1563 $x6547 $x5657 $x3442 $x5188)))))))))))
(assert
 (let (($x4037 (= cell_8_5 9)))
 (let (($x4249 (= cell_8_5 8)))
 (let (($x829 (= cell_8_5 7)))
 (let (($x2126 (= cell_8_5 6)))
 (let (($x4602 (= cell_8_5 5)))
 (let (($x1580 (= cell_8_5 4)))
 (let (($x5353 (= cell_8_5 3)))
 (let (($x3832 (= cell_8_5 2)))
 (let (($x4831 (= cell_8_5 1)))
 (or $x4831 $x3832 $x5353 $x1580 $x4602 $x2126 $x829 $x4249 $x4037)))))))))))
(assert
 (let (($x1663 (= cell_9_5 1)))
 (or $x1663 (= cell_9_5 2) (= cell_9_5 3) (= cell_9_5 4) (= cell_9_5 5) (= cell_9_5 6) (= cell_9_5 7) (= cell_9_5 8) (= cell_9_5 9))))
(assert
 (let (($x1122 (= cell_1_6 1)))
 (or $x1122 (= cell_1_6 2) (= cell_1_6 3) (= cell_1_6 4) (= cell_1_6 5) (= cell_1_6 6) (= cell_1_6 7) (= cell_1_6 8) (= cell_1_6 9))))
(assert
 (let (($x1818 (= cell_2_6 9)))
 (let (($x1119 (= cell_2_6 8)))
 (let (($x5175 (= cell_2_6 7)))
 (let (($x4371 (= cell_2_6 6)))
 (let (($x5564 (= cell_2_6 5)))
 (let (($x243 (= cell_2_6 4)))
 (let (($x2890 (= cell_2_6 3)))
 (let (($x5187 (= cell_2_6 2)))
 (let (($x67 (= cell_2_6 1)))
 (or $x67 $x5187 $x2890 $x243 $x5564 $x4371 $x5175 $x1119 $x1818)))))))))))
(assert
 (let (($x5174 (= cell_3_6 2)))
 (let (($x3169 (= cell_3_6 1)))
 (or $x3169 $x5174 (= cell_3_6 3) (= cell_3_6 4) (= cell_3_6 5) (= cell_3_6 6) (= cell_3_6 7) (= cell_3_6 8) (= cell_3_6 9)))))
(assert
 (let (($x2838 (= cell_4_6 1)))
 (or $x2838 (= cell_4_6 2) (= cell_4_6 3) (= cell_4_6 4) (= cell_4_6 5) (= cell_4_6 6) (= cell_4_6 7) (= cell_4_6 8) (= cell_4_6 9))))
(assert
 (let (($x2514 (= cell_5_6 9)))
 (let (($x3441 (= cell_5_6 8)))
 (let (($x3865 (= cell_5_6 7)))
 (let (($x4517 (= cell_5_6 6)))
 (let (($x6568 (= cell_5_6 5)))
 (let (($x2161 (= cell_5_6 4)))
 (let (($x5061 (= cell_5_6 3)))
 (let (($x367 (= cell_5_6 2)))
 (let (($x4126 (= cell_5_6 1)))
 (or $x4126 $x367 $x5061 $x2161 $x6568 $x4517 $x3865 $x3441 $x2514)))))))))))
(assert
 (let (($x24 (= cell_6_6 1)))
 (or $x24 (= cell_6_6 2) (= cell_6_6 3) (= cell_6_6 4) (= cell_6_6 5) (= cell_6_6 6) (= cell_6_6 7) (= cell_6_6 8) (= cell_6_6 9))))
(assert
 (let (($x6056 (= cell_7_6 9)))
 (let (($x5181 (= cell_7_6 8)))
 (let (($x4035 (= cell_7_6 7)))
 (let (($x2044 (= cell_7_6 6)))
 (let (($x947 (= cell_7_6 5)))
 (let (($x6358 (= cell_7_6 4)))
 (let (($x510 (= cell_7_6 3)))
 (let (($x6330 (= cell_7_6 2)))
 (let (($x4905 (= cell_7_6 1)))
 (or $x4905 $x6330 $x510 $x6358 $x947 $x2044 $x4035 $x5181 $x6056)))))))))))
(assert
 (let (($x5082 (= cell_8_6 9)))
 (let (($x3818 (= cell_8_6 8)))
 (let (($x6549 (= cell_8_6 7)))
 (let (($x4151 (= cell_8_6 6)))
 (let (($x1757 (= cell_8_6 5)))
 (let (($x3926 (= cell_8_6 4)))
 (let (($x1783 (= cell_8_6 3)))
 (let (($x4044 (= cell_8_6 2)))
 (let (($x5583 (= cell_8_6 1)))
 (or $x5583 $x4044 $x1783 $x3926 $x1757 $x4151 $x6549 $x3818 $x5082)))))))))))
(assert
 (let (($x2641 (= cell_9_6 1)))
 (or $x2641 (= cell_9_6 2) (= cell_9_6 3) (= cell_9_6 4) (= cell_9_6 5) (= cell_9_6 6) (= cell_9_6 7) (= cell_9_6 8) (= cell_9_6 9))))
(assert
 (let (($x4336 (= cell_1_7 9)))
 (let (($x3870 (= cell_1_7 8)))
 (let (($x6344 (= cell_1_7 7)))
 (let (($x2010 (= cell_1_7 6)))
 (let (($x4079 (= cell_1_7 5)))
 (let (($x977 (= cell_1_7 4)))
 (let (($x5179 (= cell_1_7 3)))
 (let (($x4706 (= cell_1_7 2)))
 (let (($x1942 (= cell_1_7 1)))
 (or $x1942 $x4706 $x5179 $x977 $x4079 $x2010 $x6344 $x3870 $x4336)))))))))))
(assert
 (let (($x3230 (= cell_2_7 1)))
 (or $x3230 (= cell_2_7 2) (= cell_2_7 3) (= cell_2_7 4) (= cell_2_7 5) (= cell_2_7 6) (= cell_2_7 7) (= cell_2_7 8) (= cell_2_7 9))))
(assert
 (let (($x2453 (= cell_3_7 2)))
 (let (($x381 (= cell_3_7 1)))
 (or $x381 $x2453 (= cell_3_7 3) (= cell_3_7 4) (= cell_3_7 5) (= cell_3_7 6) (= cell_3_7 7) (= cell_3_7 8) (= cell_3_7 9)))))
(assert
 (let (($x277 (= cell_4_7 9)))
 (let (($x2843 (= cell_4_7 8)))
 (let (($x8757 (= cell_4_7 7)))
 (let (($x1056 (= cell_4_7 6)))
 (let (($x1239 (= cell_4_7 5)))
 (let (($x4720 (= cell_4_7 4)))
 (let (($x6795 (= cell_4_7 3)))
 (let (($x4074 (= cell_4_7 2)))
 (let (($x9442 (= cell_4_7 1)))
 (or $x9442 $x4074 $x6795 $x4720 $x1239 $x1056 $x8757 $x2843 $x277)))))))))))
(assert
 (let (($x3559 (= cell_5_7 9)))
 (let (($x6220 (= cell_5_7 8)))
 (let (($x2952 (= cell_5_7 7)))
 (let (($x2568 (= cell_5_7 6)))
 (let (($x6407 (= cell_5_7 5)))
 (let (($x2916 (= cell_5_7 4)))
 (let (($x4308 (= cell_5_7 3)))
 (let (($x6150 (= cell_5_7 2)))
 (let (($x4353 (= cell_5_7 1)))
 (or $x4353 $x6150 $x4308 $x2916 $x6407 $x2568 $x2952 $x6220 $x3559)))))))))))
(assert
 (let (($x2178 (= cell_6_7 1)))
 (or $x2178 (= cell_6_7 2) (= cell_6_7 3) (= cell_6_7 4) (= cell_6_7 5) (= cell_6_7 6) (= cell_6_7 7) (= cell_6_7 8) (= cell_6_7 9))))
(assert
 (let (($x360 (= cell_7_7 9)))
 (let (($x1792 (= cell_7_7 8)))
 (let (($x1569 (= cell_7_7 7)))
 (let (($x4265 (= cell_7_7 6)))
 (let (($x1448 (= cell_7_7 5)))
 (let (($x374 (= cell_7_7 4)))
 (let (($x4332 (= cell_7_7 3)))
 (let (($x1826 (= cell_7_7 2)))
 (let (($x4159 (= cell_7_7 1)))
 (or $x4159 $x1826 $x4332 $x374 $x1448 $x4265 $x1569 $x1792 $x360)))))))))))
(assert
 (let (($x1241 (= cell_8_7 2)))
 (let (($x4223 (= cell_8_7 1)))
 (or $x4223 $x1241 (= cell_8_7 3) (= cell_8_7 4) (= cell_8_7 5) (= cell_8_7 6) (= cell_8_7 7) (= cell_8_7 8) (= cell_8_7 9)))))
(assert
 (let (($x5682 (= cell_9_7 1)))
 (or $x5682 (= cell_9_7 2) (= cell_9_7 3) (= cell_9_7 4) (= cell_9_7 5) (= cell_9_7 6) (= cell_9_7 7) (= cell_9_7 8) (= cell_9_7 9))))
(assert
 (let (($x2105 (= cell_1_8 2)))
 (or (= cell_1_8 1) $x2105 (= cell_1_8 3) (= cell_1_8 4) (= cell_1_8 5) (= cell_1_8 6) (= cell_1_8 7) (= cell_1_8 8) (= cell_1_8 9))))
(assert
 (let (($x5428 (= cell_2_8 9)))
 (let (($x4268 (= cell_2_8 8)))
 (let (($x3232 (= cell_2_8 7)))
 (let (($x4582 (= cell_2_8 6)))
 (let (($x4826 (= cell_2_8 5)))
 (let (($x448 (= cell_2_8 4)))
 (let (($x3780 (= cell_2_8 3)))
 (let (($x5397 (= cell_2_8 2)))
 (let (($x5917 (= cell_2_8 1)))
 (or $x5917 $x5397 $x3780 $x448 $x4826 $x4582 $x3232 $x4268 $x5428)))))))))))
(assert
 (let (($x4272 (= cell_3_8 9)))
 (let (($x3757 (= cell_3_8 8)))
 (let (($x1053 (= cell_3_8 7)))
 (let (($x1696 (= cell_3_8 6)))
 (let (($x872 (= cell_3_8 5)))
 (let (($x4907 (= cell_3_8 4)))
 (let (($x496 (= cell_3_8 3)))
 (let (($x3853 (= cell_3_8 2)))
 (let (($x6046 (= cell_3_8 1)))
 (or $x6046 $x3853 $x496 $x4907 $x872 $x1696 $x1053 $x3757 $x4272)))))))))))
(assert
 (let (($x1226 (= cell_4_8 9)))
 (let (($x7125 (= cell_4_8 8)))
 (let (($x5997 (= cell_4_8 7)))
 (let (($x6441 (= cell_4_8 6)))
 (let (($x3628 (= cell_4_8 5)))
 (let (($x3716 (= cell_4_8 4)))
 (let (($x5641 (= cell_4_8 3)))
 (let (($x227 (= cell_4_8 2)))
 (let (($x5796 (= cell_4_8 1)))
 (or $x5796 $x227 $x5641 $x3716 $x3628 $x6441 $x5997 $x7125 $x1226)))))))))))
(assert
 (let (($x4295 (= cell_5_8 1)))
 (or $x4295 (= cell_5_8 2) (= cell_5_8 3) (= cell_5_8 4) (= cell_5_8 5) (= cell_5_8 6) (= cell_5_8 7) (= cell_5_8 8) (= cell_5_8 9))))
(assert
 (let (($x5091 (= cell_6_8 2)))
 (let (($x4479 (= cell_6_8 1)))
 (or $x4479 $x5091 (= cell_6_8 3) (= cell_6_8 4) (= cell_6_8 5) (= cell_6_8 6) (= cell_6_8 7) (= cell_6_8 8) (= cell_6_8 9)))))
(assert
 (let (($x4541 (= cell_7_8 9)))
 (let (($x5973 (= cell_7_8 8)))
 (let (($x4270 (= cell_7_8 7)))
 (let (($x4374 (= cell_7_8 6)))
 (let (($x5172 (= cell_7_8 5)))
 (let (($x3147 (= cell_7_8 4)))
 (let (($x1072 (= cell_7_8 3)))
 (let (($x204 (= cell_7_8 2)))
 (let (($x3889 (= cell_7_8 1)))
 (or $x3889 $x204 $x1072 $x3147 $x5172 $x4374 $x4270 $x5973 $x4541)))))))))))
(assert
 (let (($x6548 (= cell_8_8 2)))
 (let (($x6531 (= cell_8_8 1)))
 (or $x6531 $x6548 (= cell_8_8 3) (= cell_8_8 4) (= cell_8_8 5) (= cell_8_8 6) (= cell_8_8 7) (= cell_8_8 8) (= cell_8_8 9)))))
(assert
 (let (($x1378 (= cell_9_8 2)))
 (let (($x4434 (= cell_9_8 1)))
 (or $x4434 $x1378 (= cell_9_8 3) (= cell_9_8 4) (= cell_9_8 5) (= cell_9_8 6) (= cell_9_8 7) (= cell_9_8 8) (= cell_9_8 9)))))
(assert
 (let (($x5409 (= cell_1_9 9)))
 (let (($x3727 (= cell_1_9 8)))
 (let (($x6176 (= cell_1_9 7)))
 (let (($x3665 (= cell_1_9 6)))
 (let (($x3662 (= cell_1_9 5)))
 (let (($x5550 (= cell_1_9 4)))
 (let (($x4521 (= cell_1_9 3)))
 (let (($x2793 (= cell_1_9 2)))
 (let (($x7721 (= cell_1_9 1)))
 (or $x7721 $x2793 $x4521 $x5550 $x3662 $x3665 $x6176 $x3727 $x5409)))))))))))
(assert
 (let (($x4638 (= cell_2_9 9)))
 (let (($x6295 (= cell_2_9 8)))
 (let (($x6584 (= cell_2_9 7)))
 (let (($x3066 (= cell_2_9 6)))
 (let (($x5990 (= cell_2_9 5)))
 (let (($x5486 (= cell_2_9 4)))
 (let (($x3091 (= cell_2_9 3)))
 (let (($x9892 (= cell_2_9 2)))
 (let (($x5636 (= cell_2_9 1)))
 (or $x5636 $x9892 $x3091 $x5486 $x5990 $x3066 $x6584 $x6295 $x4638)))))))))))
(assert
 (let (($x4247 (= cell_3_9 9)))
 (let (($x2001 (= cell_3_9 8)))
 (let (($x698 (= cell_3_9 7)))
 (let (($x3718 (= cell_3_9 6)))
 (let (($x5299 (= cell_3_9 5)))
 (let (($x577 (= cell_3_9 4)))
 (let (($x2291 (= cell_3_9 3)))
 (let (($x4291 (= cell_3_9 2)))
 (let (($x298 (= cell_3_9 1)))
 (or $x298 $x4291 $x2291 $x577 $x5299 $x3718 $x698 $x2001 $x4247)))))))))))
(assert
 (let (($x4022 (= cell_4_9 9)))
 (let (($x954 (= cell_4_9 8)))
 (let (($x3546 (= cell_4_9 7)))
 (let (($x4107 (= cell_4_9 6)))
 (let (($x2987 (= cell_4_9 5)))
 (let (($x5196 (= cell_4_9 4)))
 (let (($x6003 (= cell_4_9 3)))
 (let (($x115 (= cell_4_9 2)))
 (let (($x4421 (= cell_4_9 1)))
 (or $x4421 $x115 $x6003 $x5196 $x2987 $x4107 $x3546 $x954 $x4022)))))))))))
(assert
 (let (($x4752 (= cell_5_9 9)))
 (let (($x6168 (= cell_5_9 8)))
 (let (($x1387 (= cell_5_9 7)))
 (let (($x4422 (= cell_5_9 6)))
 (let (($x4778 (= cell_5_9 5)))
 (let (($x962 (= cell_5_9 4)))
 (let (($x2482 (= cell_5_9 3)))
 (let (($x931 (= cell_5_9 2)))
 (let (($x5263 (= cell_5_9 1)))
 (or $x5263 $x931 $x2482 $x962 $x4778 $x4422 $x1387 $x6168 $x4752)))))))))))
(assert
 (let (($x4473 (= cell_6_9 9)))
 (let (($x3849 (= cell_6_9 8)))
 (let (($x4070 (= cell_6_9 7)))
 (let (($x660 (= cell_6_9 6)))
 (let (($x4302 (= cell_6_9 5)))
 (let (($x3552 (= cell_6_9 4)))
 (let (($x6086 (= cell_6_9 3)))
 (let (($x2740 (= cell_6_9 2)))
 (let (($x4183 (= cell_6_9 1)))
 (or $x4183 $x2740 $x6086 $x3552 $x4302 $x660 $x4070 $x3849 $x4473)))))))))))
(assert
 (let (($x4830 (= cell_7_9 1)))
 (or $x4830 (= cell_7_9 2) (= cell_7_9 3) (= cell_7_9 4) (= cell_7_9 5) (= cell_7_9 6) (= cell_7_9 7) (= cell_7_9 8) (= cell_7_9 9))))
(assert
 (let (($x1823 (= cell_8_9 1)))
 (or $x1823 (= cell_8_9 2) (= cell_8_9 3) (= cell_8_9 4) (= cell_8_9 5) (= cell_8_9 6) (= cell_8_9 7) (= cell_8_9 8) (= cell_8_9 9))))
(assert
 (let (($x5897 (= cell_9_9 1)))
 (or $x5897 (= cell_9_9 2) (= cell_9_9 3) (= cell_9_9 4) (= cell_9_9 5) (= cell_9_9 6) (= cell_9_9 7) (= cell_9_9 8) (= cell_9_9 9))))
(assert
 (and (distinct cell_1_1 cell_1_2 cell_1_3 cell_1_4 cell_1_5 cell_1_6 cell_1_7 cell_1_8 cell_1_9) true))
(assert
 (and (distinct cell_2_1 cell_2_2 cell_2_3 cell_2_4 cell_2_5 cell_2_6 cell_2_7 cell_2_8 cell_2_9) true))
(assert
 (and (distinct cell_3_1 cell_3_2 cell_3_3 cell_3_4 cell_3_5 cell_3_6 cell_3_7 cell_3_8 cell_3_9) true))
(assert
 (and (distinct cell_4_1 cell_4_2 cell_4_3 cell_4_4 cell_4_5 cell_4_6 cell_4_7 cell_4_8 cell_4_9) true))
(assert
 (and (distinct cell_5_1 cell_5_2 cell_5_3 cell_5_4 cell_5_5 cell_5_6 cell_5_7 cell_5_8 cell_5_9) true))
(assert
 (and (distinct cell_6_1 cell_6_2 cell_6_3 cell_6_4 cell_6_5 cell_6_6 cell_6_7 cell_6_8 cell_6_9) true))
(assert
 (and (distinct cell_7_1 cell_7_2 cell_7_3 cell_7_4 cell_7_5 cell_7_6 cell_7_7 cell_7_8 cell_7_9) true))
(assert
 (and (distinct cell_8_1 cell_8_2 cell_8_3 cell_8_4 cell_8_5 cell_8_6 cell_8_7 cell_8_8 cell_8_9) true))
(assert
 (and (distinct cell_9_1 cell_9_2 cell_9_3 cell_9_4 cell_9_5 cell_9_6 cell_9_7 cell_9_8 cell_9_9) true))
(assert
 (and (distinct cell_1_1 cell_2_1 cell_3_1 cell_4_1 cell_5_1 cell_6_1 cell_7_1 cell_8_1 cell_9_1) true))
(assert
 (and (distinct cell_1_2 cell_2_2 cell_3_2 cell_4_2 cell_5_2 cell_6_2 cell_7_2 cell_8_2 cell_9_2) true))
(assert
 (and (distinct cell_1_3 cell_2_3 cell_3_3 cell_4_3 cell_5_3 cell_6_3 cell_7_3 cell_8_3 cell_9_3) true))
(assert
 (and (distinct cell_1_4 cell_2_4 cell_3_4 cell_4_4 cell_5_4 cell_6_4 cell_7_4 cell_8_4 cell_9_4) true))
(assert
 (and (distinct cell_1_5 cell_2_5 cell_3_5 cell_4_5 cell_5_5 cell_6_5 cell_7_5 cell_8_5 cell_9_5) true))
(assert
 (and (distinct cell_1_6 cell_2_6 cell_3_6 cell_4_6 cell_5_6 cell_6_6 cell_7_6 cell_8_6 cell_9_6) true))
(assert
 (and (distinct cell_1_7 cell_2_7 cell_3_7 cell_4_7 cell_5_7 cell_6_7 cell_7_7 cell_8_7 cell_9_7) true))
(assert
 (and (distinct cell_1_8 cell_2_8 cell_3_8 cell_4_8 cell_5_8 cell_6_8 cell_7_8 cell_8_8 cell_9_8) true))
(assert
 (and (distinct cell_1_9 cell_2_9 cell_3_9 cell_4_9 cell_5_9 cell_6_9 cell_7_9 cell_8_9 cell_9_9) true))
(assert
 (and (distinct cell_1_1 cell_1_2 cell_1_3 cell_2_1 cell_2_2 cell_2_3 cell_3_1 cell_3_2 cell_3_3) true))
(assert
 (and (distinct cell_1_4 cell_1_5 cell_1_6 cell_2_4 cell_2_5 cell_2_6 cell_3_4 cell_3_5 cell_3_6) true))
(assert
 (and (distinct cell_1_7 cell_1_8 cell_1_9 cell_2_7 cell_2_8 cell_2_9 cell_3_7 cell_3_8 cell_3_9) true))
(assert
 (and (distinct cell_4_1 cell_4_2 cell_4_3 cell_5_1 cell_5_2 cell_5_3 cell_6_1 cell_6_2 cell_6_3) true))
(assert
 (and (distinct cell_4_4 cell_4_5 cell_4_6 cell_5_4 cell_5_5 cell_5_6 cell_6_4 cell_6_5 cell_6_6) true))
(assert
 (and (distinct cell_4_7 cell_4_8 cell_4_9 cell_5_7 cell_5_8 cell_5_9 cell_6_7 cell_6_8 cell_6_9) true))
(assert
 (and (distinct cell_7_1 cell_7_2 cell_7_3 cell_8_1 cell_8_2 cell_8_3 cell_9_1 cell_9_2 cell_9_3) true))
(assert
 (and (distinct cell_7_4 cell_7_5 cell_7_6 cell_8_4 cell_8_5 cell_8_6 cell_9_4 cell_9_5 cell_9_6) true))
(assert
 (and (distinct cell_7_7 cell_7_8 cell_7_9 cell_8_7 cell_8_8 cell_8_9 cell_9_7 cell_9_8 cell_9_9) true))
(assert
 (let (($x3306 (and (distinct cell_5_9 cell_6_8 cell_7_7 cell_8_6) true)))
 (let (($x5643 (and (distinct cell_2_9 cell_3_8 cell_4_7 cell_5_6 cell_6_5 cell_7_4 cell_8_3 cell_9_2) true)))
 (let (($x4008 (and (distinct cell_1_8 cell_2_7 cell_3_6 cell_4_5 cell_5_4 cell_6_3 cell_7_2 cell_8_1) true)))
 (let (($x2752 (and (distinct cell_1_5 cell_2_4 cell_3_3 cell_4_2) true)))
 (let (($x673 (and (distinct cell_5_1 cell_6_2 cell_7_3 cell_8_4) true)))
 (let (($x1202 (and (distinct cell_2_1 cell_3_2 cell_4_3 cell_5_4 cell_6_5 cell_7_6 cell_8_7 cell_9_8) true)))
 (let (($x4514 (and (distinct cell_1_2 cell_2_3 cell_3_4 cell_4_5 cell_5_6 cell_6_7 cell_7_8 cell_8_9) true)))
 (let (($x4646 (and (distinct cell_1_5 cell_2_6 cell_3_7 cell_4_8) true)))
 (and $x4646 $x4514 $x1202 $x673 $x2752 $x4008 $x5643 $x3306))))))))))
(assert
 (and (distinct cell_4_7 2) true))
(check-sat)
